NAME 
ROWS
 N  OBJ
 L  R0      
 L  R1      
 E  R2      
 E  R3      
 E  R4      
 E  R5      
 E  R6      
COLUMNS
    MARKER    'MARKER'                 'INTORG'
    I0(4)     OBJ       -90
    I0(4)     R0        -183
    I0(4)     R1        59
    I0(4)     R2        17
    I0(4)     R6        1
    I1(6)     OBJ       -7
    I1(6)     R0        -3
    I1(6)     R1        -94
    I1(6)     R2        9
    I1(6)     R3        16
    I1(6)     R4        4
    I1(6)     R6        1
    I2(4)     OBJ       -160
    I2(4)     R0        -32
    I2(4)     R1        172
    I2(4)     R4        11
    I2(4)     R6        1
    MARKER    'MARKER'                 'INTEND'
    C3(3)     OBJ       -5
    C3(3)     R0        7
    C3(3)     R1        9
    C3(3)     R4        9
    C4(2)     OBJ       -3
    C4(2)     R1        -10
    C4(2)     R3        18
    C5(1)     R2        1
    C6(1)     R3        1
    C7(1)     R4        1
    C8(1)     R5        1
    C9(1)     R6        1
RHS
    RHS1      R0        3.6444444444444443e+01
    RHS1      R1        2.2277777777777777e+02
    RHS1      R2        67
    RHS1      R3        67
    RHS1      R4        99
    RHS1      R5        71
    RHS1      R6        1
BOUNDS
 UP BND1      I0(4)     2
 UP BND1      I1(6)     2
 UP BND1      I2(4)     2
ENDATA
